;; translated from ./bv/mergesort.c.vmt
;; original benchmark available at: https://es-static.fbk.eu/people/griggio/ic3ia/index.html
;; author: Alberto Griggio <griggio@fbk.eu>
(set-logic HORN)
(declare-fun state (Bool Bool Bool Bool (_ BitVec 32) (_ BitVec 32) (_ BitVec 32) (_ BitVec 32) (_ BitVec 32) (_ BitVec 32) (_ BitVec 32) (_ BitVec 32) (_ BitVec 32) (_ BitVec 32)) Bool)
(assert (forall ((|.PC.1| Bool) (|.PC.0| Bool) (|.PC.0.next| Bool) (|.PC.1.next| Bool) (|.PC.2.next| Bool) (|.PC.3.next| Bool) (|i.next| (_ BitVec 32)) (|i| (_ BitVec 32)) (|__RET__$main.next| (_ BitVec 32)) (|__RET__$main| (_ BitVec 32)) (|j.next| (_ BitVec 32)) (|j| (_ BitVec 32)) (|k.next| (_ BitVec 32)) (|k| (_ BitVec 32)) (|l.next| (_ BitVec 32)) (|l| (_ BitVec 32)) (|r.next| (_ BitVec 32)) (|r| (_ BitVec 32)) (|u.next| (_ BitVec 32)) (|u| (_ BitVec 32)) (|x| (_ BitVec 32)) (|x.next| (_ BitVec 32)) (|y.next| (_ BitVec 32)) (|y| (_ BitVec 32)) (|z.next| (_ BitVec 32)) (|z| (_ BitVec 32)) (|y.SSA.1.ssa| (_ BitVec 32)) (|.PC.3| Bool) (|.PC.2| Bool)) (=> (let ((.def_18 (not .PC.3)))
(let ((.def_15 (not .PC.2)))
(let ((.def_12 (not .PC.1)))
(let ((.def_10 (not .PC.0)))
(let ((.def_13 (and .def_10 .def_12)))
(let ((.def_16 (and .def_13 .def_15)))
(let ((.def_19 (and .def_16 .def_18)))
.def_19))))))) (state |.PC.0| |.PC.1| |.PC.2| |.PC.3| |__RET__$main| |i| |j| |k| |l| |r| |u| |y| |z| |x|))))
(assert (forall ((|.PC.1| Bool) (|.PC.0| Bool) (|.PC.0.next| Bool) (|.PC.1.next| Bool) (|.PC.2.next| Bool) (|.PC.3.next| Bool) (|i.next| (_ BitVec 32)) (|i| (_ BitVec 32)) (|__RET__$main.next| (_ BitVec 32)) (|__RET__$main| (_ BitVec 32)) (|j.next| (_ BitVec 32)) (|j| (_ BitVec 32)) (|k.next| (_ BitVec 32)) (|k| (_ BitVec 32)) (|l.next| (_ BitVec 32)) (|l| (_ BitVec 32)) (|r.next| (_ BitVec 32)) (|r| (_ BitVec 32)) (|u.next| (_ BitVec 32)) (|u| (_ BitVec 32)) (|x| (_ BitVec 32)) (|x.next| (_ BitVec 32)) (|y.next| (_ BitVec 32)) (|y| (_ BitVec 32)) (|z.next| (_ BitVec 32)) (|z| (_ BitVec 32)) (|y.SSA.1.ssa| (_ BitVec 32)) (|.PC.3| Bool) (|.PC.2| Bool)) (=> (and (state |.PC.0| |.PC.1| |.PC.2| |.PC.3| |__RET__$main| |i| |j| |k| |l| |r| |u| |y| |z| |x|) (let ((.def_12 (not .PC.1)))
(let ((.def_71 (and .PC.0 .def_12)))
(let ((.def_15 (not .PC.2)))
(let ((.def_72 (and .def_15 .def_71)))
(let ((.def_323 (and .PC.3 .def_72)))
(let ((.def_64 (not .PC.1.next)))
(let ((.def_66 (and .def_64 .PC.0.next)))
(let ((.def_62 (not .PC.2.next)))
(let ((.def_67 (and .def_62 .def_66)))
(let ((.def_319 (and .PC.3.next .def_67)))
(let ((.def_324 (and .def_319 .def_323)))
(let ((.def_29 (= i i.next)))
(let ((.def_25 (= __RET__$main __RET__$main.next)))
(let ((.def_310 (and .def_25 .def_29)))
(let ((.def_33 (= j j.next)))
(let ((.def_311 (and .def_33 .def_310)))
(let ((.def_37 (= k k.next)))
(let ((.def_312 (and .def_37 .def_311)))
(let ((.def_41 (= l l.next)))
(let ((.def_313 (and .def_41 .def_312)))
(let ((.def_45 (= r r.next)))
(let ((.def_314 (and .def_45 .def_313)))
(let ((.def_49 (= u u.next)))
(let ((.def_315 (and .def_49 .def_314)))
(let ((.def_86 (= x.next x)))
(let ((.def_316 (and .def_86 .def_315)))
(let ((.def_53 (= y y.next)))
(let ((.def_317 (and .def_53 .def_316)))
(let ((.def_57 (= z z.next)))
(let ((.def_318 (and .def_57 .def_317)))
(let ((.def_320 (and .def_318 .def_319)))
(let ((.def_308 (and .PC.2 .def_71)))
(let ((.def_18 (not .PC.3)))
(let ((.def_309 (and .def_18 .def_308)))
(let ((.def_321 (and .def_309 .def_320)))
(let ((.def_279 (bvslt k u)))
(let ((.def_200 (bvadd (_ bv1 32) k)))
(let ((.def_201 (= k.next .def_200)))
(let ((.def_295 (and .def_201 .def_279)))
(let ((.def_296 (and .def_25 .def_295)))
(let ((.def_297 (and .def_29 .def_296)))
(let ((.def_298 (and .def_33 .def_297)))
(let ((.def_299 (and .def_41 .def_298)))
(let ((.def_300 (and .def_45 .def_299)))
(let ((.def_301 (and .def_49 .def_300)))
(let ((.def_302 (and .def_86 .def_301)))
(let ((.def_303 (and .def_53 .def_302)))
(let ((.def_304 (and .def_57 .def_303)))
(let ((.def_146 (not .PC.0.next)))
(let ((.def_147 (and .def_64 .def_146)))
(let ((.def_258 (and .def_62 .def_147)))
(let ((.def_259 (and .PC.3.next .def_258)))
(let ((.def_305 (and .def_259 .def_304)))
(let ((.def_10 (not .PC.0)))
(let ((.def_13 (and .def_10 .def_12)))
(let ((.def_16 (and .def_13 .def_15)))
(let ((.def_292 (and .def_16 .PC.3)))
(let ((.def_306 (and .def_292 .def_305)))
(let ((.def_280 (not .def_279)))
(let ((.def_95 (bvshl x (_ bv1 32))))
(let ((.def_121 (bvadd z .def_95)))
(let ((.def_278 (= z.next .def_121)))
(let ((.def_281 (and .def_278 .def_280)))
(let ((.def_282 (and .def_25 .def_281)))
(let ((.def_283 (and .def_29 .def_282)))
(let ((.def_284 (and .def_33 .def_283)))
(let ((.def_285 (and .def_37 .def_284)))
(let ((.def_286 (and .def_41 .def_285)))
(let ((.def_287 (and .def_45 .def_286)))
(let ((.def_288 (and .def_49 .def_287)))
(let ((.def_289 (and .def_86 .def_288)))
(let ((.def_290 (and .def_53 .def_289)))
(let ((.def_89 (and .PC.1.next .PC.0.next)))
(let ((.def_90 (and .def_62 .def_89)))
(let ((.def_60 (not .PC.3.next)))
(let ((.def_91 (and .def_60 .def_90)))
(let ((.def_291 (and .def_91 .def_290)))
(let ((.def_293 (and .def_291 .def_292)))
(let ((.def_197 (bvadd (_ bv1 32) j)))
(let ((.def_198 (= j.next .def_197)))
(let ((.def_154 (bvslt j u)))
(let ((.def_265 (and .def_154 .def_198)))
(let ((.def_266 (and .def_201 .def_265)))
(let ((.def_267 (and .def_25 .def_266)))
(let ((.def_268 (and .def_29 .def_267)))
(let ((.def_269 (and .def_41 .def_268)))
(let ((.def_270 (and .def_45 .def_269)))
(let ((.def_271 (and .def_49 .def_270)))
(let ((.def_272 (and .def_86 .def_271)))
(let ((.def_273 (and .def_53 .def_272)))
(let ((.def_274 (and .def_57 .def_273)))
(let ((.def_224 (and .PC.2.next .def_89)))
(let ((.def_225 (and .def_60 .def_224)))
(let ((.def_275 (and .def_225 .def_274)))
(let ((.def_112 (and .PC.0 .PC.1)))
(let ((.def_261 (and .PC.2 .def_112)))
(let ((.def_262 (and .def_18 .def_261)))
(let ((.def_276 (and .def_262 .def_275)))
(let ((.def_247 (= k.next l)))
(let ((.def_155 (not .def_154)))
(let ((.def_248 (and .def_155 .def_247)))
(let ((.def_249 (and .def_25 .def_248)))
(let ((.def_250 (and .def_29 .def_249)))
(let ((.def_251 (and .def_33 .def_250)))
(let ((.def_252 (and .def_41 .def_251)))
(let ((.def_253 (and .def_45 .def_252)))
(let ((.def_254 (and .def_49 .def_253)))
(let ((.def_255 (and .def_86 .def_254)))
(let ((.def_256 (and .def_53 .def_255)))
(let ((.def_257 (and .def_57 .def_256)))
(let ((.def_260 (and .def_257 .def_259)))
(let ((.def_263 (and .def_260 .def_262)))
(let ((.def_232 (bvadd (_ bv1 32) i)))
(let ((.def_233 (= i.next .def_232)))
(let ((.def_153 (bvslt i r)))
(let ((.def_234 (and .def_153 .def_233)))
(let ((.def_235 (and .def_201 .def_234)))
(let ((.def_236 (and .def_25 .def_235)))
(let ((.def_237 (and .def_33 .def_236)))
(let ((.def_238 (and .def_41 .def_237)))
(let ((.def_239 (and .def_45 .def_238)))
(let ((.def_240 (and .def_49 .def_239)))
(let ((.def_241 (and .def_86 .def_240)))
(let ((.def_242 (and .def_53 .def_241)))
(let ((.def_243 (and .def_57 .def_242)))
(let ((.def_190 (and .PC.1.next .def_146)))
(let ((.def_191 (and .PC.2.next .def_190)))
(let ((.def_192 (and .def_60 .def_191)))
(let ((.def_244 (and .def_192 .def_243)))
(let ((.def_227 (and .def_10 .PC.1)))
(let ((.def_228 (and .PC.2 .def_227)))
(let ((.def_229 (and .def_18 .def_228)))
(let ((.def_245 (and .def_229 .def_244)))
(let ((.def_157 (not .def_153)))
(let ((.def_214 (and .def_25 .def_157)))
(let ((.def_215 (and .def_29 .def_214)))
(let ((.def_216 (and .def_33 .def_215)))
(let ((.def_217 (and .def_37 .def_216)))
(let ((.def_218 (and .def_41 .def_217)))
(let ((.def_219 (and .def_45 .def_218)))
(let ((.def_220 (and .def_49 .def_219)))
(let ((.def_221 (and .def_86 .def_220)))
(let ((.def_222 (and .def_53 .def_221)))
(let ((.def_223 (and .def_57 .def_222)))
(let ((.def_226 (and .def_223 .def_225)))
(let ((.def_230 (and .def_226 .def_229)))
(let ((.def_196 (and .def_153 .def_154)))
(let ((.def_199 (and .def_196 .def_198)))
(let ((.def_202 (and .def_199 .def_201)))
(let ((.def_203 (and .def_25 .def_202)))
(let ((.def_204 (and .def_29 .def_203)))
(let ((.def_205 (and .def_41 .def_204)))
(let ((.def_206 (and .def_45 .def_205)))
(let ((.def_207 (and .def_49 .def_206)))
(let ((.def_208 (and .def_86 .def_207)))
(let ((.def_209 (and .def_53 .def_208)))
(let ((.def_210 (and .def_57 .def_209)))
(let ((.def_148 (and .PC.2.next .def_147)))
(let ((.def_149 (and .def_60 .def_148)))
(let ((.def_211 (and .def_149 .def_210)))
(let ((.def_174 (and .def_13 .PC.2)))
(let ((.def_175 (and .def_18 .def_174)))
(let ((.def_212 (and .def_175 .def_211)))
(let ((.def_159 (bvslt (_ bv0 32) k)))
(let ((.def_178 (not .def_159)))
(let ((.def_156 (and .def_153 .def_155)))
(let ((.def_158 (or .def_156 .def_157)))
(let ((.def_179 (and .def_158 .def_178)))
(let ((.def_180 (and .def_25 .def_179)))
(let ((.def_181 (and .def_29 .def_180)))
(let ((.def_182 (and .def_33 .def_181)))
(let ((.def_183 (and .def_37 .def_182)))
(let ((.def_184 (and .def_41 .def_183)))
(let ((.def_185 (and .def_45 .def_184)))
(let ((.def_186 (and .def_49 .def_185)))
(let ((.def_187 (and .def_86 .def_186)))
(let ((.def_188 (and .def_53 .def_187)))
(let ((.def_189 (and .def_57 .def_188)))
(let ((.def_193 (and .def_189 .def_192)))
(let ((.def_194 (and .def_175 .def_193)))
(let ((.def_171 (and .PC.2.next .def_66)))
(let ((.def_172 (and .def_60 .def_171)))
(let ((.def_160 (and .def_158 .def_159)))
(let ((.def_161 (and .def_25 .def_160)))
(let ((.def_162 (and .def_29 .def_161)))
(let ((.def_163 (and .def_33 .def_162)))
(let ((.def_164 (and .def_37 .def_163)))
(let ((.def_165 (and .def_41 .def_164)))
(let ((.def_166 (and .def_45 .def_165)))
(let ((.def_167 (and .def_49 .def_166)))
(let ((.def_168 (and .def_86 .def_167)))
(let ((.def_169 (and .def_53 .def_168)))
(let ((.def_170 (and .def_57 .def_169)))
(let ((.def_173 (and .def_170 .def_172)))
(let ((.def_176 (and .def_173 .def_175)))
(let ((.def_141 (= k.next l.next)))
(let ((.def_139 (= j.next r.next)))
(let ((.def_137 (= i.next l.next)))
(let ((.def_135 (= u.next y.next)))
(let ((.def_98 (bvadd z x)))
(let ((.def_133 (= r.next .def_98)))
(let ((.def_131 (= l.next z)))
(let ((.def_122 (= y.SSA.1.ssa .def_121)))
(let ((.def_100 (bvslt (_ bv0 32) .def_98)))
(let ((.def_120 (not .def_100)))
(let ((.def_123 (and .def_120 .def_122)))
(let ((.def_118 (bvslt (_ bv0 32) y.SSA.1.ssa)))
(let ((.def_128 (and .def_118 .def_123)))
(let ((.def_127 (= y.next (_ bv1 32))))
(let ((.def_129 (and .def_127 .def_128)))
(let ((.def_125 (= y.next y.SSA.1.ssa)))
(let ((.def_119 (not .def_118)))
(let ((.def_124 (and .def_119 .def_123)))
(let ((.def_126 (and .def_124 .def_125)))
(let ((.def_130 (or .def_126 .def_129)))
(let ((.def_132 (and .def_130 .def_131)))
(let ((.def_134 (and .def_132 .def_133)))
(let ((.def_136 (and .def_134 .def_135)))
(let ((.def_138 (and .def_136 .def_137)))
(let ((.def_140 (and .def_138 .def_139)))
(let ((.def_142 (and .def_140 .def_141)))
(let ((.def_143 (and .def_25 .def_142)))
(let ((.def_144 (and .def_86 .def_143)))
(let ((.def_145 (and .def_57 .def_144)))
(let ((.def_150 (and .def_145 .def_149)))
(let ((.def_113 (and .def_15 .def_112)))
(let ((.def_114 (and .def_18 .def_113)))
(let ((.def_151 (and .def_114 .def_150)))
(let ((.def_96 (= x.next .def_95)))
(let ((.def_101 (and .def_96 .def_100)))
(let ((.def_102 (and .def_25 .def_101)))
(let ((.def_103 (and .def_29 .def_102)))
(let ((.def_104 (and .def_33 .def_103)))
(let ((.def_105 (and .def_37 .def_104)))
(let ((.def_106 (and .def_41 .def_105)))
(let ((.def_107 (and .def_45 .def_106)))
(let ((.def_108 (and .def_49 .def_107)))
(let ((.def_109 (and .def_53 .def_108)))
(let ((.def_110 (and .def_57 .def_109)))
(let ((.def_68 (and .def_60 .def_67)))
(let ((.def_111 (and .def_68 .def_110)))
(let ((.def_115 (and .def_111 .def_114)))
(let ((.def_77 (= z.next (_ bv1 32))))
(let ((.def_75 ((_ extract 31 31) x)))
(let ((.def_76 (= .def_75 (_ bv1 1))))
(let ((.def_78 (and .def_76 .def_77)))
(let ((.def_79 (and .def_25 .def_78)))
(let ((.def_80 (and .def_29 .def_79)))
(let ((.def_81 (and .def_33 .def_80)))
(let ((.def_82 (and .def_37 .def_81)))
(let ((.def_83 (and .def_41 .def_82)))
(let ((.def_84 (and .def_45 .def_83)))
(let ((.def_85 (and .def_49 .def_84)))
(let ((.def_87 (and .def_85 .def_86)))
(let ((.def_88 (and .def_53 .def_87)))
(let ((.def_92 (and .def_88 .def_91)))
(let ((.def_73 (and .def_18 .def_72)))
(let ((.def_93 (and .def_73 .def_92)))
(let ((.def_22 (= x.next (_ bv1 32))))
(let ((.def_26 (and .def_22 .def_25)))
(let ((.def_30 (and .def_26 .def_29)))
(let ((.def_34 (and .def_30 .def_33)))
(let ((.def_38 (and .def_34 .def_37)))
(let ((.def_42 (and .def_38 .def_41)))
(let ((.def_46 (and .def_42 .def_45)))
(let ((.def_50 (and .def_46 .def_49)))
(let ((.def_54 (and .def_50 .def_53)))
(let ((.def_58 (and .def_54 .def_57)))
(let ((.def_69 (and .def_58 .def_68)))
(let ((.def_19 (and .def_16 .def_18)))
(let ((.def_70 (and .def_19 .def_69)))
(let ((.def_94 (or .def_70 .def_93)))
(let ((.def_116 (or .def_94 .def_115)))
(let ((.def_152 (or .def_116 .def_151)))
(let ((.def_177 (or .def_152 .def_176)))
(let ((.def_195 (or .def_177 .def_194)))
(let ((.def_213 (or .def_195 .def_212)))
(let ((.def_231 (or .def_213 .def_230)))
(let ((.def_246 (or .def_231 .def_245)))
(let ((.def_264 (or .def_246 .def_263)))
(let ((.def_277 (or .def_264 .def_276)))
(let ((.def_294 (or .def_277 .def_293)))
(let ((.def_307 (or .def_294 .def_306)))
(let ((.def_322 (or .def_307 .def_321)))
(let ((.def_325 (or .def_322 .def_324)))
.def_325)))))))))))))))))))))))))))))))))))))))))))))))))))))))))))))))))))))))))))))))))))))))))))))))))))))))))))))))))))))))))))))))))))))))))))))))))))))))))))))))))))))))))))))))))))))))))))))))))))))))))))))))))))))))))))))))))))))))))))))))))))))))))))))))))))))))))))))))))))))))))))))) (state |.PC.0.next| |.PC.1.next| |.PC.2.next| |.PC.3.next| |__RET__$main.next| |i.next| |j.next| |k.next| |l.next| |r.next| |u.next| |y.next| |z.next| |x.next|))))
(assert (forall ((|.PC.1| Bool) (|.PC.0| Bool) (|.PC.0.next| Bool) (|.PC.1.next| Bool) (|.PC.2.next| Bool) (|.PC.3.next| Bool) (|i.next| (_ BitVec 32)) (|i| (_ BitVec 32)) (|__RET__$main.next| (_ BitVec 32)) (|__RET__$main| (_ BitVec 32)) (|j.next| (_ BitVec 32)) (|j| (_ BitVec 32)) (|k.next| (_ BitVec 32)) (|k| (_ BitVec 32)) (|l.next| (_ BitVec 32)) (|l| (_ BitVec 32)) (|r.next| (_ BitVec 32)) (|r| (_ BitVec 32)) (|u.next| (_ BitVec 32)) (|u| (_ BitVec 32)) (|x| (_ BitVec 32)) (|x.next| (_ BitVec 32)) (|y.next| (_ BitVec 32)) (|y| (_ BitVec 32)) (|z.next| (_ BitVec 32)) (|z| (_ BitVec 32)) (|y.SSA.1.ssa| (_ BitVec 32)) (|.PC.3| Bool) (|.PC.2| Bool)) (=> (state |.PC.0| |.PC.1| |.PC.2| |.PC.3| |__RET__$main| |i| |j| |k| |l| |r| |u| |y| |z| |x|) (let ((.def_12 (not .PC.1)))
(let ((.def_71 (and .PC.0 .def_12)))
(let ((.def_15 (not .PC.2)))
(let ((.def_72 (and .def_15 .def_71)))
(let ((.def_323 (and .PC.3 .def_72)))
(let ((.def_326 (not .def_323)))
.def_326)))))))))
(check-sat)
